Optimal - objective value 13668.00000000
      0 X0                 13668                       1
      1 X1                     1                       0
      2 X2                     1                       0
      3 X3                     1                       0
      4 X4                     1                       0
      5 X5                     1                       0
      6 X6                     1                       0
      7 X7                     1                       0
      8 X8                     1                       0
      9 X9                     1                       0
     10 X10                    1                       0
     11 X11                    1                       0
     12 X12                    1                       0
     13 X13                    1                       0
     14 X14                    1                       0
     32 X32                    1                       0
     33 X63                    1                       0
     34 X94                    1                       0
     35 X125                   1                       0
     36 X156                   1                       0
     37 X187                   1                       0
     38 X218                   1                       0
     39 X249                   1                       0
     40 X280                   1                       0
     41 X311                   1                       0
     42 X342                   1                       0
     43 X373                   1                       0
     44 X404                   1                       0
     62 X33                    1                       0
     63 X64                    1                       0
     64 X95                    1                       0
     65 X126                   1                       0
     66 X157                   1                       0
     67 X188                   1                       0
     68 X219                   1                       0
     69 X250                   1                       0
     70 X281                   1                       0
     71 X312                   1                       0
     72 X343                   1                       0
     73 X374                   1                       0
     74 X405                   1                       0
     92 X34                    1                       0
     93 X66                    1                       0
     94 X96                    1                       0
     95 X98                    1                       0
     96 X128                   1                       0
     97 X130                   1                       0
     98 X160                   1                       0
     99 X162                   1                       0
    100 X192                   1                       0
    101 X194                   1                       0
    102 X224                   1                       0
    103 X226                   1                       0
    104 X256                   1                       0
    105 X258                   1                       0
    106 X288                   1                       0
    107 X290                   1                       0
    108 X320                   1                       0
    112 X384                   1                       0
    113 X386                   1                       0
    114 X416                   1                       0
    115 X418                   1                       0
    116 X448                   1                       0
    117 X450                   1                       0
    118 X480                   1                       0
    119 X482                   1                       0
    120 X512                   1                       0
    121 X514                   1                       0
    122 X544                   1                       0
    123 X546                   1                       0
    124 X576                   1                       0
    126 X608                   1                       0
    129 X642                   1                       0
    130 X672                   1                       0
    131 X674                   1                       0
    132 X704                   1                       0
    133 X706                   1                       0
    134 X736                   1                       0
    135 X738                   1                       0
    136 X768                   1                       0
    137 X770                   1                       0
    138 X800                   1                       0
    139 X802                   1                       0
    140 X832                   1                       0
    141 X834                   1                       0
    142 X864                   1                       0
    143 X866                   1                       0
    144 X896                   1                       0
    145 X898                   1                       0
    146 X928                   1                       0
    147 X930                   1                       0
    148 X960                   1                       0
    149 X35                    1                       0
    150 X67                    1                       0
    151 X99                    1                       0
    152 X127                   1                       0
    153 X131                   1                       0
    154 X159                   1                       0
    155 X163                   1                       0
    156 X191                   1                       0
    157 X195                   1                       0
    158 X223                   1                       0
    159 X227                   1                       0
    160 X255                   1                       0
    161 X259                   1                       0
    162 X287                   1                       0
    163 X291                   1                       0
    164 X319                   1                       0
    166 X351                   1                       0
    167 X355                   1                       0
    169 X387                   1                       0
    170 X415                   1                       0
    171 X419                   1                       0
    172 X447                   1                       0
    173 X451                   1                       0
    174 X479                   1                       0
    175 X483                   1                       0
    176 X511                   1                       0
    177 X515                   1                       0
    178 X543                   1                       0
    179 X547                   1                       0
    180 X575                   1                       0
    182 X607                   1                       0
    185 X643                   1                       0
    186 X671                   1                       0
    187 X675                   1                       0
    188 X703                   1                       0
    189 X707                   1                       0
    190 X735                   1                       0
    191 X739                   1                       0
    192 X767                   1                       0
    193 X771                   1                       0
    194 X799                   1                       0
    195 X803                   1                       0
    196 X831                   1                       0
    197 X835                   1                       0
    198 X863                   1                       0
    199 X867                   1                       0
    200 X895                   1                       0
    201 X899                   1                       0
    202 X927                   1                       0
    203 X959                   1                       0
    204 X36                    1                       0
    205 X68                    1                       0
    206 X100                   1                       0
    207 X132                   1                       0
    208 X158                   1                       0
    209 X164                   1                       0
    210 X190                   1                       0
    211 X196                   1                       0
    212 X222                   1                       0
    213 X228                   1                       0
    214 X254                   1                       0
    215 X260                   1                       0
    216 X286                   1                       0
    218 X318                   1                       0
    219 X324                   1                       0
    220 X350                   1                       0
    221 X356                   1                       0
    223 X388                   1                       0
    224 X414                   1                       0
    225 X420                   1                       0
    226 X446                   1                       0
    227 X452                   1                       0
    228 X478                   1                       0
    229 X484                   1                       0
    230 X510                   1                       0
    231 X516                   1                       0
    232 X542                   1                       0
    233 X548                   1                       0
    234 X574                   1                       0
    236 X606                   1                       0
    237 X612                   1                       0
    238 X638                   1                       0
    239 X644                   1                       0
    241 X676                   1                       0
    242 X702                   1                       0
    243 X708                   1                       0
    244 X734                   1                       0
    245 X740                   1                       0
    246 X766                   1                       0
    247 X772                   1                       0
    248 X798                   1                       0
    249 X804                   1                       0
    250 X830                   1                       0
    251 X836                   1                       0
    252 X862                   1                       0
    253 X868                   1                       0
    254 X894                   1                       0
    255 X926                   1                       0
    256 X958                   1                       0
    257 X37                    1                       0
    258 X69                    1                       0
    259 X101                   1                       0
    260 X133                   1                       0
    261 X165                   1                       0
    262 X189                   1                       0
    263 X197                   1                       0
    264 X221                   1                       0
    265 X229                   1                       0
    266 X253                   1                       0
    267 X261                   1                       0
    268 X285                   1                       0
    270 X317                   1                       0
    271 X325                   1                       0
    272 X349                   1                       0
    273 X357                   1                       0
    275 X389                   1                       0
    277 X421                   1                       0
    278 X445                   1                       0
    279 X453                   1                       0
    280 X477                   1                       0
    281 X485                   1                       0
    282 X509                   1                       0
    283 X517                   1                       0
    284 X541                   1                       0
    285 X549                   1                       0
    286 X573                   1                       0
    287 X581                   1                       0
    288 X605                   1                       0
    289 X613                   1                       0
    290 X637                   1                       0
    291 X645                   1                       0
    293 X677                   1                       0
    295 X709                   1                       0
    296 X733                   1                       0
    297 X741                   1                       0
    298 X765                   1                       0
    299 X773                   1                       0
    300 X797                   1                       0
    301 X805                   1                       0
    302 X829                   1                       0
    303 X837                   1                       0
    304 X861                   1                       0
    305 X893                   1                       0
    306 X925                   1                       0
    307 X957                   1                       0
    308 X38                    1                       0
    309 X70                    1                       0
    310 X102                   1                       0
    311 X134                   1                       0
    312 X166                   1                       0
    313 X198                   1                       0
    314 X220                   1                       0
    315 X230                   1                       0
    316 X252                   1                       0
    318 X284                   1                       0
    319 X294                   1                       0
    320 X316                   1                       0
    321 X326                   1                       0
    322 X348                   1                       0
    323 X358                   1                       0
    324 X380                   1                       0
    328 X444                   1                       0
    329 X454                   1                       0
    330 X476                   1                       0
    331 X486                   1                       0
    333 X518                   1                       0
    337 X582                   1                       0
    338 X604                   1                       0
    339 X614                   1                       0
    340 X636                   1                       0
    341 X646                   1                       0
    342 X668                   1                       0
    343 X678                   1                       0
    345 X710                   1                       0
    346 X732                   1                       0
    347 X742                   1                       0
    348 X764                   1                       0
    349 X774                   1                       0
    350 X796                   1                       0
    351 X806                   1                       0
    352 X828                   1                       0
    353 X860                   1                       0
    354 X892                   1                       0
    355 X924                   1                       0
    356 X956                   1                       0
    357 X39                    1                       0
    358 X71                    1                       0
    359 X103                   1                       0
    360 X135                   1                       0
    361 X167                   1                       0
    362 X199                   1                       0
    364 X251                   1                       0
    365 X263                   1                       0
    366 X283                   1                       0
    367 X295                   1                       0
    368 X315                   1                       0
    370 X347                   1                       0
    372 X379                   1                       0
    376 X443                   1                       0
    378 X475                   1                       0
    379 X487                   1                       0
    381 X519                   1                       0
    385 X583                   1                       0
    387 X615                   1                       0
    389 X647                   1                       0
    390 X667                   1                       0
    391 X679                   1                       0
    392 X699                   1                       0
    393 X711                   1                       0
    395 X743                   1                       0
    396 X763                   1                       0
    397 X775                   1                       0
    398 X795                   1                       0
    399 X827                   1                       0
    400 X859                   1                       0
    401 X891                   1                       0
    402 X923                   1                       0
    403 X955                   1                       0
    404 X40                    1                       0
    405 X72                    1                       0
    406 X104                   1                       0
    407 X136                   1                       0
    408 X168                   1                       0
    410 X232                   1                       0
    412 X282                   1                       0
    414 X314                   1                       0
    416 X346                   1                       0
    418 X378                   1                       0
    422 X442                   1                       0
    424 X474                   1                       0
    427 X520                   1                       0
    431 X584                   1                       0
    433 X616                   1                       0
    435 X648                   1                       0
    437 X680                   1                       0
    438 X698                   1                       0
    439 X712                   1                       0
    440 X730                   1                       0
    441 X744                   1                       0
    443 X794                   1                       0
    444 X826                   1                       0
    445 X858                   1                       0
    446 X890                   1                       0
    447 X922                   1                       0
    448 X954                   1                       0
    449 X41                    1                       0
    450 X73                    1                       0
    451 X105                   1                       0
    452 X137                   1                       0
    453 X169                   1                       0
    454 X201                   1                       0
    458 X313                   1                       0
    460 X345                   1                       0
    462 X377                   1                       0
    464 X409                   1                       0
    466 X441                   1                       0
    471 X521                   1                       0
    475 X585                   1                       0
    477 X617                   1                       0
    479 X649                   1                       0
    481 X681                   1                       0
    483 X713                   1                       0
    485 X761                   1                       0
    486 X793                   1                       0
    487 X825                   1                       0
    488 X857                   1                       0
    489 X889                   1                       0
    490 X921                   1                       0
    491 X953                   1                       0
    492 X42                    1                       0
    493 X74                    1                       0
    494 X106                   1                       0
    495 X138                   1                       0
    502 X344                   1                       0
    504 X376                   1                       0
    506 X408                   1                       0
    513 X522                   1                       0
    515 X554                   1                       0
    517 X586                   1                       0
    519 X618                   1                       0
    521 X650                   1                       0
    523 X682                   1                       0
    528 X824                   1                       0
    529 X856                   1                       0
    530 X888                   1                       0
    531 X920                   1                       0
    532 X952                   1                       0
    533 X43                    1                       0
    534 X75                    1                       0
    535 X107                   1                       0
    544 X375                   1                       0
    546 X407                   1                       0
    555 X555                   1                       0
    557 X587                   1                       0
    559 X619                   1                       0
    561 X651                   1                       0
    568 X855                   1                       0
    569 X887                   1                       0
    570 X919                   1                       0
    571 X951                   1                       0
    572 X44                    1                       0
    573 X76                    1                       0
    584 X406                   1                       0
    593 X556                   1                       0
    595 X588                   1                       0
    597 X620                   1                       0
    606 X886                   1                       0
    607 X918                   1                       0
    608 X950                   1                       0
    609 X45                    1                       0
    629 X557                   1                       0
    631 X589                   1                       0
    642 X917                   1                       0
    643 X949                   1                       0
    663 X558                   1                       0
    676 X948                   1                       0
    933 X65                    1                       0
    934 X97                    1                       0
    935 X129                   1                       0
    936 X161                   1                       0
    937 X193                   1                       0
    938 X225                   1                       0
    939 X257                   1                       0
    940 X289                   1                       0
    941 X321                   1                       0
    943 X385                   1                       0
    944 X417                   1                       0
    945 X449                   1                       0
    946 X481                   1                       0
    947 X513                   1                       0
    948 X545                   1                       0
    949 X577                   1                       0
    951 X641                   1                       0
    952 X673                   1                       0
    953 X705                   1                       0
    954 X737                   1                       0
    955 X769                   1                       0
    956 X801                   1                       0
    957 X833                   1                       0
    958 X865                   1                       0
    959 X897                   1                       0
    960 X929                   1                       0
    961 X961                   1                       0
